outputs/case_98.model.txt
is_agent_or_notary = False
liability_insurance_purchased = True
fee_charged = True
fee_standard_disclosed = True
is_broker = True
guarantee_insurance_purchased = True
no_operation_outside_license_scope = True
no_false_or_misleading_promotion = True
financial_and_business_management_compliant = True
no_conviction_for_fraud_or_forgery = True
other_management_rules_followed = True
financial_and_business_management_followed = True
management_rules_followed = True
duty_of_care_observed = True
no_commission_payment_to_non_actual_recruiters = True
no_unauthorized_use_of_license = True
no_unauthorized_advertisement_content = True
no_unauthorized_delegation_or_nominee_operation = True
broker_duty_of_care_and_fiduciary = True
management_rules_complied = True
insurance_type_compliant = True
no_false_recruitment_reports_for_seniors = True
no_failure_to_confirm_suitability_for_seniors = True
no_improper_inducement_to_cancel_or_loan = True
written_report_provided = True
no_concealment_of_important_contract_info = True
no_false_declaration_on_license_application = True
no_conflict_of_interest_or_ineligible_positions = True
no_prohibited_acts = True
other_management_rules_compliant = True
no_other_violations_of_rules_or_laws = True
broker_report_and_fee_disclosed = True
no_illegal_commission_or_fee_collection = True
no_other_actions_damaging_insurance_reputation = True
no_failure_to_report_to_broker_association = True
no_employment_of_unqualified_recruiters = True
no_inducement_to_terminate_contracts_or_loans = True
licensed_and_bonded = True
no_spreading_false_information = True
no_contract_with_unapproved_insurers = True
no_unauthorized_transfer_of_application_documents = True
no_illegal_insurance_claims = True
no_misappropriation_of_funds = True
no_coercion_or_illegal_inducement = True
license_obtained = True
penalty = False
bond_deposited = True
practice_certificate_held = True
insurance_purchased = True
fiduciary_duty_observed = True
no_false_or_incomplete_business_or_financial_reports = True
no_failure_to_reappoint_broker_after_resignation = True
no_sale_of_unapproved_foreign_policies = True
no_unauthorized_suspension_or_termination_of_business = True
no_failure_to_cancel_license_in_time = True